p cnf 100 200
1 -100 -1 0
1 -100 4 0
1 -99 -77 0
1 -99 24 0
1 -98 29 0
1 -98 51 0
1 -97 59 0
1 -97 84 0
1 -96 -24 0
1 -96 56 0
1 -95 15 0
1 -95 21 0
1 -94 -5 0
1 -94 42 0
1 -93 7 0
1 -93 9 0
1 -92 -89 0
1 -92 -27 0
1 -91 -30 0
1 -91 68 0
1 -90 -25 0
1 -90 73 0
1 -89 51 0
1 -88 -31 0
1 -88 54 0
1 -87 -18 0
1 -87 47 0
1 -86 -27 0
1 -86 -20 0
1 -85 -62 0
1 -85 13 0
1 -84 -11 0
1 -84 -6 0
1 -83 -76 0
1 -83 71 0
1 -82 -45 0
1 -82 58 0
1 -81 -62 0
1 -81 38 0
1 -80 1 0
1 -80 88 0
1 -79 -12 0
1 -79 28 0
1 -78 -59 0
1 -78 87 0
1 -77 63 0
1 -76 -53 0
1 -75 -59 0
1 -75 22 0
1 -74 -57 0
1 -74 46 0
1 -73 31 0
1 -73 97 0
1 -72 -7 0
1 -72 27 0
1 -71 -16 0
1 -71 81 0
1 -70 -43 0
1 -70 -24 0
1 -69 10 0
1 -69 57 0
1 -68 -58 0
1 -68 62 0
1 -67 -48 0
1 -67 43 0
1 -66 -2 0
1 -66 14 0
1 -65 -40 0
1 -65 37 0
1 -64 25 0
1 -64 45 0
1 -63 -39 0
1 -63 10 0
1 -61 -56 0
1 -61 3 0
1 -60 21 0
1 -60 49 0
1 -58 45 0
1 -57 31 0
1 -56 69 0
1 -55 83 0
1 -55 95 0
1 -54 -21 0
1 -54 79 0
1 -53 7 0
1 -52 -33 0
1 -52 -19 0
1 -51 -20 0
1 -51 80 0
1 -50 -37 0
1 -50 14 0
1 -49 28 0
1 -49 60 0
1 -48 -13 0
1 -47 -11 0
1 -47 86 0
1 -46 -38 0
1 -46 72 0
1 -45 71 0
1 -44 -17 0
1 -44 36 0
1 -43 88 0
1 -42 75 0
1 -42 81 0
1 -41 5 0
1 -41 44 0
1 -40 53 0
1 -39 -7 0
1 -38 -18 0
1 -37 41 0
1 -36 -21 0
1 -36 37 0
1 -35 -4 0
1 -35 2 0
1 -34 76 0
1 -34 100 0
1 -33 80 0
1 -32 83 0
1 -32 97 0
1 -31 -28 0
1 -30 29 0
1 -29 -13 0
1 -29 35 0
1 -28 74 0
1 -26 41 0
1 -26 55 0
1 -25 64 0
1 -23 -15 0
1 -23 63 0
1 -22 18 0
1 -22 69 0
1 -19 39 0
1 -17 35 0
1 -16 8 0
1 -15 89 0
1 -14 -4 0
1 -14 18 0
1 -12 99 0
1 -10 -9 0
1 -10 92 0
1 -9 1 0
1 -8 67 0
1 -8 98 0
1 -6 23 0
1 -5 -2 0
1 -3 32 0
1 -3 34 0
1 -1 60 0
1 2 98 0
1 3 16 0
1 4 43 0
1 5 91 0
1 6 24 0
1 6 64 0
1 8 50 0
1 9 17 0
1 11 78 0
1 11 94 0
1 12 20 0
1 12 30 0
1 13 16 0
1 15 58 0
1 17 66 0
1 19 66 0
1 19 96 0
1 20 36 0
1 22 53 0
1 23 25 0
1 26 33 0
1 26 46 0
1 27 49 0
1 30 33 0
1 32 62 0
1 34 91 0
1 38 55 0
1 39 99 0
1 40 86 0
1 40 93 0
1 42 59 0
1 44 82 0
1 47 95 0
1 48 74 0
1 48 75 0
1 50 68 0
1 52 54 0
1 52 70 0
1 56 61 0
1 57 84 0
1 61 87 0
1 65 67 0
1 65 79 0
1 70 90 0
1 72 78 0
1 73 90 0
1 76 82 0
1 77 89 0
1 77 96 0
1 85 92 0
1 85 100 0
1 93 94 0
